p tw 176 39601 2 
1 3 
1 4 
1 5 
1 6 
1 7 
1 8 
1 9 
1 10 
1 11 
1 12 
1 13 
1 14 
1 15 
1 16 
1 17 
1 18 
1 19 
1 20 
1 21 
1 22 
1 23 
1 24 
1 25 
1 26 
1 27 
1 28 
1 29 
1 30 
1 31 
1 43 
1 56 
1 71 
1 82 
1 88 
1 98 
1 111 
1 122 
1 128 
1 132 
1 144 
1 146 
1 157 
1 175 
1 176 
2 3 
2 4 
2 5 
2 6 
2 7 
2 8 
2 9 
2 10 
2 11 
2 12 
2 13 
2 14 
2 15 
2 16 
2 17 
2 18 
2 32 
2 33 
2 34 
2 35 
2 36 
2 37 
2 38 
2 39 
2 40 
2 41 
2 42 
2 43 
2 44 
2 45 
2 46 
2 47 
2 48 
2 49 
2 50 
2 51 
2 52 
2 53 
2 54 
2 55 
2 56 
2 57 
2 58 
2 59 
3 4 
3 5 
3 6 
3 7 
3 8 
3 9 
3 10 
3 11 
3 12 
3 13 
3 14 
3 15 
3 16 
3 19 
3 29 
3 32 
3 36 
3 46 
3 59 
3 60 
3 61 
3 62 
3 63 
3 64 
3 65 
3 66 
3 67 
3 68 
3 69 
3 70 
3 71 
3 76 
3 91 
3 100 
3 111 
3 126 
3 137 
3 145 
3 150 
3 159 
3 163 
3 173 
3 174 
4 5 
4 6 
4 7 
4 8 
4 9 
4 10 
4 11 
4 12 
4 13 
4 14 
4 15 
4 16 
4 20 
4 28 
4 33 
4 38 
4 46 
4 58 
4 60 
4 72 
4 73 
4 74 
4 75 
4 76 
4 77 
4 78 
4 79 
4 80 
4 81 
4 82 
4 83 
4 96 
4 107 
4 120 
4 128 
4 136 
4 150 
4 158 
4 162 
4 165 
4 170 
4 171 
5 6 
5 7 
5 8 
5 9 
5 10 
5 11 
5 12 
5 13 
5 14 
5 15 
5 16 
5 21 
5 25 
5 34 
5 40 
5 47 
5 53 
5 60 
5 65 
5 72 
5 78 
5 84 
5 85 
5 86 
5 87 
5 88 
5 89 
5 90 
5 91 
5 92 
5 93 
5 97 
5 106 
5 117 
5 125 
5 132 
5 139 
5 149 
5 150 
5 151 
5 152 
6 7 
6 8 
6 9 
6 10 
6 11 
6 12 
6 13 
6 14 
6 15 
6 16 
6 20 
6 25 
6 35 
6 44 
6 48 
6 59 
6 61 
6 67 
6 81 
6 84 
6 90 
6 94 
6 95 
6 96 
6 97 
6 98 
6 99 
6 100 
6 101 
6 102 
6 103 
6 113 
6 118 
6 130 
6 134 
6 140 
6 148 
6 164 
6 171 
6 176 
7 8 
7 9 
7 10 
7 11 
7 12 
7 13 
7 14 
7 15 
7 16 
7 22 
7 30 
7 32 
7 42 
7 49 
7 50 
7 68 
7 72 
7 78 
7 86 
7 94 
7 101 
7 104 
7 105 
7 106 
7 107 
7 108 
7 109 
7 110 
7 111 
7 112 
7 113 
7 116 
7 136 
7 155 
7 160 
7 163 
7 166 
7 168 
7 176 
8 9 
8 10 
8 11 
8 12 
8 13 
8 14 
8 15 
8 16 
8 18 
8 19 
8 36 
8 39 
8 48 
8 62 
8 73 
8 81 
8 85 
8 89 
8 100 
8 104 
8 110 
8 114 
8 115 
8 116 
8 117 
8 118 
8 119 
8 120 
8 121 
8 122 
8 135 
8 142 
8 149 
8 157 
8 161 
8 165 
8 168 
8 169 
9 10 
9 11 
9 12 
9 13 
9 14 
9 15 
9 16 
9 23 
9 24 
9 34 
9 45 
9 50 
9 55 
9 62 
9 71 
9 73 
9 74 
9 93 
9 95 
9 102 
9 104 
9 109 
9 123 
9 124 
9 125 
9 126 
9 127 
9 128 
9 129 
9 130 
9 142 
9 148 
9 152 
9 155 
9 162 
9 172 
9 174 
10 11 
10 12 
10 13 
10 14 
10 15 
10 16 
10 23 
10 24 
10 37 
10 38 
10 47 
10 51 
10 61 
10 63 
10 75 
10 76 
10 86 
10 94 
10 105 
10 114 
10 115 
10 123 
10 131 
10 132 
10 133 
10 134 
10 135 
10 136 
10 137 
10 138 
10 139 
10 140 
10 141 
10 142 
10 143 
10 144 
11 12 
11 13 
11 14 
11 15 
11 16 
11 21 
11 30 
11 39 
11 43 
11 51 
11 52 
11 64 
11 69 
11 77 
11 79 
11 93 
11 96 
11 103 
11 106 
11 113 
11 116 
11 117 
11 124 
11 127 
11 131 
11 135 
11 138 
11 145 
11 146 
11 147 
11 148 
11 156 
11 167 
11 170 
11 173 
12 13 
12 14 
12 15 
12 16 
12 17 
12 26 
12 33 
12 49 
12 54 
12 64 
12 66 
12 75 
12 85 
12 90 
12 98 
12 101 
12 107 
12 121 
12 126 
12 129 
12 133 
12 140 
12 143 
12 146 
12 149 
12 151 
12 153 
12 154 
12 155 
12 156 
12 159 
12 161 
12 170 
12 172 
13 14 
13 15 
13 16 
13 22 
13 31 
13 41 
13 44 
13 55 
13 58 
13 65 
13 70 
13 74 
13 79 
13 87 
13 92 
13 95 
13 99 
13 110 
13 118 
13 121 
13 131 
13 137 
13 141 
13 144 
13 147 
13 152 
13 153 
13 156 
13 157 
13 158 
13 159 
13 160 
13 166 
14 15 
14 16 
14 27 
14 28 
14 40 
14 41 
14 53 
14 56 
14 63 
14 67 
14 77 
14 80 
14 87 
14 92 
14 99 
14 102 
14 108 
14 112 
14 114 
14 119 
14 124 
14 127 
14 133 
14 143 
14 154 
14 161 
14 162 
14 163 
14 164 
14 168 
14 173 
14 175 
15 16 
15 26 
15 27 
15 35 
15 42 
15 52 
15 57 
15 66 
15 70 
15 80 
15 83 
15 88 
15 91 
15 103 
15 105 
15 109 
15 119 
15 120 
15 125 
15 130 
15 134 
15 139 
15 141 
15 145 
15 153 
15 165 
15 166 
15 167 
15 169 
15 172 
15 175 
16 29 
16 31 
16 37 
16 45 
16 54 
16 57 
16 68 
16 69 
16 82 
16 83 
16 84 
16 89 
16 97 
16 108 
16 112 
16 115 
16 122 
16 123 
16 129 
16 138 
16 147 
16 151 
16 154 
16 158 
16 160 
16 164 
16 167 
16 169 
16 171 
16 174 
17 18 
17 19 
17 20 
17 21 
17 22 
17 23 
17 24 
17 25 
17 26 
17 27 
17 28 
17 29 
17 30 
17 31 
17 32 
17 33 
17 34 
17 35 
17 36 
17 37 
17 38 
17 39 
17 40 
17 41 
17 42 
17 43 
17 44 
17 45 
17 49 
17 66 
17 75 
17 90 
17 101 
17 121 
17 129 
17 143 
17 146 
17 151 
17 159 
17 161 
17 170 
17 172 
18 19 
18 20 
18 21 
18 22 
18 23 
18 24 
18 25 
18 26 
18 27 
18 28 
18 29 
18 30 
18 31 
18 39 
18 46 
18 47 
18 48 
18 49 
18 50 
18 51 
18 52 
18 53 
18 54 
18 55 
18 56 
18 57 
18 58 
18 59 
18 62 
18 81 
18 89 
18 100 
18 110 
18 135 
18 142 
18 149 
18 157 
18 161 
18 165 
18 168 
18 169 
19 20 
19 21 
19 22 
19 23 
19 24 
19 25 
19 26 
19 27 
19 28 
19 29 
19 30 
19 31 
19 32 
19 36 
19 46 
19 48 
19 60 
19 61 
19 62 
19 63 
19 64 
19 65 
19 66 
19 67 
19 68 
19 69 
19 70 
19 71 
19 73 
19 85 
19 104 
19 114 
19 115 
19 116 
19 117 
19 118 
19 119 
19 120 
19 121 
19 122 
20 21 
20 22 
20 23 
20 24 
20 25 
20 26 
20 27 
20 28 
20 29 
20 30 
20 31 
20 33 
20 35 
20 46 
20 48 
20 61 
20 72 
20 73 
20 74 
20 75 
20 76 
20 77 
20 78 
20 79 
20 80 
20 81 
20 82 
20 83 
20 84 
20 94 
20 95 
20 96 
20 97 
20 98 
20 99 
20 100 
20 101 
20 102 
20 103 
21 22 
21 23 
21 24 
21 25 
21 26 
21 27 
21 28 
21 29 
21 30 
21 31 
21 34 
21 39 
21 47 
21 52 
21 60 
21 64 
21 72 
21 77 
21 84 
21 85 
21 86 
21 87 
21 88 
21 89 
21 90 
21 91 
21 92 
21 93 
21 96 
21 106 
21 116 
21 124 
21 131 
21 138 
21 145 
21 146 
21 147 
21 148 
22 23 
22 24 
22 25 
22 26 
22 27 
22 28 
22 29 
22 30 
22 31 
22 32 
22 41 
22 49 
22 55 
22 65 
22 72 
22 79 
22 87 
22 94 
22 95 
22 104 
22 105 
22 106 
22 107 
22 108 
22 109 
22 110 
22 111 
22 112 
22 113 
22 118 
22 131 
22 141 
22 153 
22 157 
22 158 
22 159 
22 160 
23 24 
23 25 
23 26 
23 27 
23 28 
23 29 
23 30 
23 31 
23 34 
23 38 
23 50 
23 51 
23 62 
23 63 
23 74 
23 76 
23 86 
23 94 
23 95 
23 104 
23 115 
23 123 
23 124 
23 125 
23 126 
23 127 
23 128 
23 129 
23 130 
23 138 
23 139 
23 140 
23 141 
23 142 
23 143 
23 144 
24 25 
24 26 
24 27 
24 28 
24 29 
24 30 
24 31 
24 37 
24 45 
24 47 
24 55 
24 61 
24 71 
24 73 
24 75 
24 93 
24 102 
24 105 
24 109 
24 114 
24 123 
24 131 
24 132 
24 133 
24 134 
24 135 
24 136 
24 137 
24 142 
24 148 
24 152 
24 155 
24 162 
24 172 
24 174 
25 26 
25 27 
25 28 
25 29 
25 30 
25 31 
25 40 
25 44 
25 53 
25 59 
25 65 
25 67 
25 78 
25 81 
25 90 
25 97 
25 106 
25 113 
25 117 
25 118 
25 125 
25 130 
25 132 
25 134 
25 139 
25 140 
25 148 
25 149 
25 150 
25 151 
25 152 
25 164 
25 171 
25 176 
26 27 
26 28 
26 29 
26 30 
26 31 
26 33 
26 35 
26 54 
26 57 
26 64 
26 66 
26 80 
26 85 
26 88 
26 98 
26 107 
26 109 
26 119 
26 125 
26 126 
26 133 
26 134 
26 140 
26 141 
26 145 
26 149 
26 153 
26 154 
26 155 
26 156 
26 165 
26 166 
26 167 
27 28 
27 29 
27 30 
27 31 
27 40 
27 42 
27 52 
27 56 
27 63 
27 70 
27 77 
27 83 
27 87 
27 91 
27 99 
27 103 
27 105 
27 108 
27 119 
27 120 
27 127 
27 130 
27 133 
27 139 
27 153 
27 161 
27 162 
27 163 
27 164 
27 169 
27 172 
27 175 
28 29 
28 30 
28 31 
28 38 
28 41 
28 53 
28 58 
28 60 
28 67 
28 80 
28 92 
28 96 
28 102 
28 107 
28 112 
28 114 
28 120 
28 124 
28 128 
28 136 
28 143 
28 150 
28 154 
28 158 
28 162 
28 165 
28 168 
28 170 
28 171 
28 173 
28 175 
29 30 
29 31 
29 36 
29 45 
29 57 
29 59 
29 69 
29 76 
29 82 
29 84 
29 91 
29 100 
29 108 
29 111 
29 115 
29 123 
29 126 
29 137 
29 145 
29 147 
29 150 
29 151 
29 154 
29 159 
29 160 
29 163 
29 169 
29 171 
29 173 
29 174 
30 31 
30 42 
30 43 
30 50 
30 51 
30 68 
30 69 
30 78 
30 79 
30 86 
30 93 
30 101 
30 103 
30 113 
30 116 
30 117 
30 127 
30 135 
30 136 
30 155 
30 156 
30 160 
30 163 
30 166 
30 167 
30 168 
30 170 
30 173 
30 176 
31 37 
31 44 
31 54 
31 58 
31 68 
31 70 
31 74 
31 83 
31 89 
31 92 
31 97 
31 99 
31 110 
31 112 
31 121 
31 122 
31 129 
31 137 
31 138 
31 144 
31 147 
31 152 
31 156 
31 158 
31 164 
31 166 
31 167 
31 174 
32 33 
32 34 
32 35 
32 36 
32 37 
32 38 
32 39 
32 40 
32 41 
32 42 
32 43 
32 44 
32 45 
32 46 
32 49 
32 60 
32 61 
32 62 
32 63 
32 64 
32 65 
32 66 
32 67 
32 68 
32 69 
32 70 
32 71 
32 72 
32 94 
32 104 
32 105 
32 106 
32 107 
32 108 
32 109 
32 110 
32 111 
32 112 
32 113 
33 34 
33 35 
33 36 
33 37 
33 38 
33 39 
33 40 
33 41 
33 42 
33 43 
33 44 
33 45 
33 46 
33 54 
33 64 
33 72 
33 73 
33 74 
33 75 
33 76 
33 77 
33 78 
33 79 
33 80 
33 81 
33 82 
33 83 
33 85 
33 98 
33 107 
33 126 
33 133 
33 140 
33 149 
33 153 
33 154 
33 155 
33 156 
34 35 
34 36 
34 37 
34 38 
34 39 
34 40 
34 41 
34 42 
34 43 
34 44 
34 45 
34 47 
34 50 
34 60 
34 62 
34 72 
34 74 
34 84 
34 85 
34 86 
34 87 
34 88 
34 89 
34 90 
34 91 
34 92 
34 93 
34 95 
34 104 
34 123 
34 124 
34 125 
34 126 
34 127 
34 128 
34 129 
34 130 
35 36 
35 37 
35 38 
35 39 
35 40 
35 41 
35 42 
35 43 
35 44 
35 45 
35 48 
35 57 
35 61 
35 66 
35 80 
35 84 
35 88 
35 94 
35 95 
35 96 
35 97 
35 98 
35 99 
35 100 
35 101 
35 102 
35 103 
35 109 
35 119 
35 125 
35 134 
35 141 
35 145 
35 165 
35 166 
35 167 
36 37 
36 38 
36 39 
36 40 
36 41 
36 42 
36 43 
36 44 
36 45 
36 48 
36 59 
36 73 
36 76 
36 85 
36 91 
36 100 
36 104 
36 111 
36 114 
36 115 
36 116 
36 117 
36 118 
36 119 
36 120 
36 121 
36 122 
36 126 
36 137 
36 145 
36 150 
36 159 
36 163 
36 173 
36 174 
37 38 
37 39 
37 40 
37 41 
37 42 
37 43 
37 44 
37 45 
37 47 
37 54 
37 61 
37 68 
37 75 
37 83 
37 89 
37 97 
37 105 
37 112 
37 114 
37 122 
37 123 
37 129 
37 131 
37 132 
37 133 
37 134 
37 135 
37 136 
37 137 
37 138 
37 158 
37 164 
37 167 
37 174 
38 39 
38 40 
38 41 
38 42 
38 43 
38 44 
38 45 
38 51 
38 58 
38 60 
38 63 
38 76 
38 86 
38 94 
38 96 
38 107 
38 115 
38 120 
38 128 
38 136 
38 138 
38 139 
38 140 
38 141 
38 142 
38 143 
38 144 
38 150 
38 158 
38 162 
38 165 
38 170 
38 171 
39 40 
39 41 
39 42 
39 43 
39 44 
39 45 
39 52 
39 62 
39 64 
39 77 
39 81 
39 89 
39 96 
39 100 
39 106 
39 110 
39 116 
39 124 
39 131 
39 135 
39 138 
39 142 
39 145 
39 146 
39 147 
39 148 
39 149 
39 157 
39 161 
39 165 
39 168 
39 169 
40 41 
40 42 
40 43 
40 44 
40 45 
40 53 
40 56 
40 63 
40 65 
40 77 
40 78 
40 87 
40 97 
40 99 
40 106 
40 108 
40 117 
40 119 
40 125 
40 127 
40 132 
40 133 
40 139 
40 149 
40 150 
40 151 
40 152 
40 161 
40 162 
40 163 
40 164 
41 42 
41 43 
41 44 
41 45 
41 53 
41 55 
41 65 
41 67 
41 79 
41 80 
41 87 
41 92 
41 95 
41 102 
41 112 
41 114 
41 118 
41 124 
41 131 
41 141 
41 143 
41 153 
41 154 
41 157 
41 158 
41 159 
41 160 
41 168 
41 173 
41 175 
42 43 
42 44 
42 45 
42 50 
42 52 
42 68 
42 70 
42 78 
42 83 
42 86 
42 91 
42 101 
42 103 
42 105 
42 116 
42 120 
42 130 
42 136 
42 139 
42 153 
42 155 
42 160 
42 163 
42 166 
42 168 
42 169 
42 172 
42 175 
42 176 
43 44 
43 45 
43 51 
43 56 
43 69 
43 71 
43 79 
43 82 
43 88 
43 93 
43 98 
43 103 
43 111 
43 113 
43 117 
43 122 
43 127 
43 128 
43 132 
43 135 
43 144 
43 146 
43 156 
43 157 
43 167 
43 170 
43 173 
43 175 
43 176 
44 45 
44 58 
44 59 
44 67 
44 70 
44 74 
44 81 
44 90 
44 92 
44 99 
44 110 
44 113 
44 118 
44 121 
44 130 
44 134 
44 137 
44 140 
44 144 
44 147 
44 148 
44 152 
44 156 
44 164 
44 166 
44 171 
44 176 
45 55 
45 57 
45 69 
45 71 
45 73 
45 82 
45 84 
45 93 
45 102 
45 108 
45 109 
45 115 
45 123 
45 142 
45 147 
45 148 
45 151 
45 152 
45 154 
45 155 
45 160 
45 162 
45 169 
45 171 
45 172 
45 174 
46 47 
46 48 
46 49 
46 50 
46 51 
46 52 
46 53 
46 54 
46 55 
46 56 
46 57 
46 58 
46 59 
46 60 
46 61 
46 62 
46 63 
46 64 
46 65 
46 66 
46 67 
46 68 
46 69 
46 70 
46 71 
46 72 
46 73 
46 74 
46 75 
46 76 
46 77 
46 78 
46 79 
46 80 
46 81 
46 82 
46 83 
47 48 
47 49 
47 50 
47 51 
47 52 
47 53 
47 54 
47 55 
47 56 
47 57 
47 58 
47 59 
47 60 
47 61 
47 72 
47 75 
47 84 
47 85 
47 86 
47 87 
47 88 
47 89 
47 90 
47 91 
47 92 
47 93 
47 105 
47 114 
47 123 
47 131 
47 132 
47 133 
47 134 
47 135 
47 136 
47 137 
48 49 
48 50 
48 51 
48 52 
48 53 
48 54 
48 55 
48 56 
48 57 
48 58 
48 59 
48 61 
48 73 
48 84 
48 85 
48 94 
48 95 
48 96 
48 97 
48 98 
48 99 
48 100 
48 101 
48 102 
48 103 
48 104 
48 114 
48 115 
48 116 
48 117 
48 118 
48 119 
48 120 
48 121 
48 122 
49 50 
49 51 
49 52 
49 53 
49 54 
49 55 
49 56 
49 57 
49 58 
49 59 
49 66 
49 72 
49 75 
49 90 
49 94 
49 101 
49 104 
49 105 
49 106 
49 107 
49 108 
49 109 
49 110 
49 111 
49 112 
49 113 
49 121 
49 129 
49 143 
49 146 
49 151 
49 159 
49 161 
49 170 
49 172 
50 51 
50 52 
50 53 
50 54 
50 55 
50 56 
50 57 
50 58 
50 59 
50 62 
50 68 
50 74 
50 78 
50 86 
50 95 
50 101 
50 104 
50 116 
50 123 
50 124 
50 125 
50 126 
50 127 
50 128 
50 129 
50 130 
50 136 
50 155 
50 160 
50 163 
50 166 
50 168 
50 176 
51 52 
51 53 
51 54 
51 55 
51 56 
51 57 
51 58 
51 59 
51 63 
51 69 
51 76 
51 79 
51 86 
51 93 
51 94 
51 103 
51 113 
51 115 
51 117 
51 127 
51 135 
51 138 
51 139 
51 140 
51 141 
51 142 
51 143 
51 144 
51 156 
51 167 
51 170 
51 173 
52 53 
52 54 
52 55 
52 56 
52 57 
52 58 
52 59 
52 64 
52 70 
52 77 
52 83 
52 91 
52 96 
52 103 
52 105 
52 106 
52 116 
52 120 
52 124 
52 130 
52 131 
52 138 
52 139 
52 145 
52 146 
52 147 
52 148 
52 153 
52 169 
52 172 
52 175 
53 54 
53 55 
53 56 
53 57 
53 58 
53 59 
53 65 
53 67 
53 78 
53 80 
53 92 
53 97 
53 102 
53 106 
53 112 
53 114 
53 117 
53 124 
53 125 
53 132 
53 139 
53 143 
53 149 
53 150 
53 151 
53 152 
53 154 
53 168 
53 173 
53 175 
54 55 
54 56 
54 57 
54 58 
54 59 
54 64 
54 68 
54 83 
54 85 
54 89 
54 97 
54 98 
54 107 
54 112 
54 122 
54 126 
54 129 
54 133 
54 138 
54 140 
54 149 
54 153 
54 154 
54 155 
54 156 
54 158 
54 164 
54 167 
54 174 
55 56 
55 57 
55 58 
55 59 
55 65 
55 71 
55 73 
55 79 
55 87 
55 93 
55 95 
55 102 
55 109 
55 118 
55 131 
55 141 
55 142 
55 148 
55 152 
55 153 
55 155 
55 157 
55 158 
55 159 
55 160 
55 162 
55 172 
55 174 
56 57 
56 58 
56 59 
56 63 
56 71 
56 77 
56 82 
56 87 
56 88 
56 98 
56 99 
56 108 
56 111 
56 119 
56 122 
56 127 
56 128 
56 132 
56 133 
56 144 
56 146 
56 157 
56 161 
56 162 
56 163 
56 164 
56 175 
56 176 
57 58 
57 59 
57 66 
57 69 
57 80 
57 82 
57 84 
57 88 
57 108 
57 109 
57 115 
57 119 
57 123 
57 125 
57 134 
57 141 
57 145 
57 147 
57 151 
57 154 
57 160 
57 165 
57 166 
57 167 
57 169 
57 171 
58 59 
58 60 
58 70 
58 74 
58 92 
58 96 
58 99 
58 107 
58 110 
58 120 
58 121 
58 128 
58 136 
58 137 
58 144 
58 147 
58 150 
58 152 
58 156 
58 158 
58 162 
58 165 
58 166 
58 170 
58 171 
59 67 
59 76 
59 81 
59 90 
59 91 
59 100 
59 111 
59 113 
59 118 
59 126 
59 130 
59 134 
59 137 
59 140 
59 145 
59 148 
59 150 
59 159 
59 163 
59 164 
59 171 
59 173 
59 174 
59 176 
60 61 
60 62 
60 63 
60 64 
60 65 
60 66 
60 67 
60 68 
60 69 
60 70 
60 71 
60 72 
60 84 
60 85 
60 86 
60 87 
60 88 
60 89 
60 90 
60 91 
60 92 
60 93 
60 96 
60 107 
60 120 
60 128 
60 136 
60 150 
60 158 
60 162 
60 165 
60 170 
60 171 
61 62 
61 63 
61 64 
61 65 
61 66 
61 67 
61 68 
61 69 
61 70 
61 71 
61 75 
61 84 
61 94 
61 95 
61 96 
61 97 
61 98 
61 99 
61 100 
61 101 
61 102 
61 103 
61 105 
61 114 
61 123 
61 131 
61 132 
61 133 
61 134 
61 135 
61 136 
61 137 
62 63 
62 64 
62 65 
62 66 
62 67 
62 68 
62 69 
62 70 
62 71 
62 74 
62 81 
62 89 
62 95 
62 100 
62 104 
62 110 
62 123 
62 124 
62 125 
62 126 
62 127 
62 128 
62 129 
62 130 
62 135 
62 142 
62 149 
62 157 
62 161 
62 165 
62 168 
62 169 
63 64 
63 65 
63 66 
63 67 
63 68 
63 69 
63 70 
63 71 
63 76 
63 77 
63 86 
63 87 
63 94 
63 99 
63 108 
63 115 
63 119 
63 127 
63 133 
63 138 
63 139 
63 140 
63 141 
63 142 
63 143 
63 144 
63 161 
63 162 
63 163 
63 164 
64 65 
64 66 
64 67 
64 68 
64 69 
64 70 
64 71 
64 77 
64 85 
64 96 
64 98 
64 106 
64 107 
64 116 
64 124 
64 126 
64 131 
64 133 
64 138 
64 140 
64 145 
64 146 
64 147 
64 148 
64 149 
64 153 
64 154 
64 155 
64 156 
65 66 
65 67 
65 68 
65 69 
65 70 
65 71 
65 78 
65 79 
65 87 
65 95 
65 97 
65 106 
65 117 
65 118 
65 125 
65 131 
65 132 
65 139 
65 141 
65 149 
65 150 
65 151 
65 152 
65 153 
65 157 
65 158 
65 159 
65 160 
66 67 
66 68 
66 69 
66 70 
66 71 
66 75 
66 80 
66 88 
66 90 
66 101 
66 109 
66 119 
66 121 
66 125 
66 129 
66 134 
66 141 
66 143 
66 145 
66 146 
66 151 
66 159 
66 161 
66 165 
66 166 
66 167 
66 170 
66 172 
67 68 
67 69 
67 70 
67 71 
67 80 
67 81 
67 90 
67 92 
67 102 
67 112 
67 113 
67 114 
67 118 
67 124 
67 130 
67 134 
67 140 
67 143 
67 148 
67 154 
67 164 
67 168 
67 171 
67 173 
67 175 
67 176 
68 69 
68 70 
68 71 
68 78 
68 83 
68 86 
68 89 
68 97 
68 101 
68 112 
68 116 
68 122 
68 129 
68 136 
68 138 
68 155 
68 158 
68 160 
68 163 
68 164 
68 166 
68 167 
68 168 
68 174 
68 176 
69 70 
69 71 
69 79 
69 82 
69 84 
69 93 
69 103 
69 108 
69 113 
69 115 
69 117 
69 123 
69 127 
69 135 
69 147 
69 151 
69 154 
69 156 
69 160 
69 167 
69 169 
69 170 
69 171 
69 173 
70 71 
70 74 
70 83 
70 91 
70 92 
70 99 
70 103 
70 105 
70 110 
70 120 
70 121 
70 130 
70 137 
70 139 
70 144 
70 147 
70 152 
70 153 
70 156 
70 166 
70 169 
70 172 
70 175 
71 73 
71 82 
71 88 
71 93 
71 98 
71 102 
71 109 
71 111 
71 122 
71 128 
71 132 
71 142 
71 144 
71 146 
71 148 
71 152 
71 155 
71 157 
71 162 
71 172 
71 174 
71 175 
71 176 
72 73 
72 74 
72 75 
72 76 
72 77 
72 78 
72 79 
72 80 
72 81 
72 82 
72 83 
72 84 
72 85 
72 86 
72 87 
72 88 
72 89 
72 90 
72 91 
72 92 
72 93 
72 94 
72 104 
72 105 
72 106 
72 107 
72 108 
72 109 
72 110 
72 111 
72 112 
72 113 
73 74 
73 75 
73 76 
73 77 
73 78 
73 79 
73 80 
73 81 
73 82 
73 83 
73 85 
73 93 
73 102 
73 104 
73 109 
73 114 
73 115 
73 116 
73 117 
73 118 
73 119 
73 120 
73 121 
73 122 
73 142 
73 148 
73 152 
73 155 
73 162 
73 172 
73 174 
74 75 
74 76 
74 77 
74 78 
74 79 
74 80 
74 81 
74 82 
74 83 
74 92 
74 95 
74 99 
74 104 
74 110 
74 121 
74 123 
74 124 
74 125 
74 126 
74 127 
74 128 
74 129 
74 130 
74 137 
74 144 
74 147 
74 152 
74 156 
74 166 
75 76 
75 77 
75 78 
75 79 
75 80 
75 81 
75 82 
75 83 
75 90 
75 101 
75 105 
75 114 
75 121 
75 123 
75 129 
75 131 
75 132 
75 133 
75 134 
75 135 
75 136 
75 137 
75 143 
75 146 
75 151 
75 159 
75 161 
75 170 
75 172 
76 77 
76 78 
76 79 
76 80 
76 81 
76 82 
76 83 
76 86 
76 91 
76 94 
76 100 
76 111 
76 115 
76 126 
76 137 
76 138 
76 139 
76 140 
76 141 
76 142 
76 143 
76 144 
76 145 
76 150 
76 159 
76 163 
76 173 
76 174 
77 78 
77 79 
77 80 
77 81 
77 82 
77 83 
77 87 
77 96 
77 99 
77 106 
77 108 
77 116 
77 119 
77 124 
77 127 
77 131 
77 133 
77 138 
77 145 
77 146 
77 147 
77 148 
77 161 
77 162 
77 163 
77 164 
78 79 
78 80 
78 81 
78 82 
78 83 
78 86 
78 97 
78 101 
78 106 
78 116 
78 117 
78 125 
78 132 
78 136 
78 139 
78 149 
78 150 
78 151 
78 152 
78 155 
78 160 
78 163 
78 166 
78 168 
78 176 
79 80 
79 81 
79 82 
79 83 
79 87 
79 93 
79 95 
79 103 
79 113 
79 117 
79 118 
79 127 
79 131 
79 135 
79 141 
79 153 
79 156 
79 157 
79 158 
79 159 
79 160 
79 167 
79 170 
79 173 
80 81 
80 82 
80 83 
80 88 
80 92 
80 102 
80 109 
80 112 
80 114 
80 119 
80 124 
80 125 
80 134 
80 141 
80 143 
80 145 
80 154 
80 165 
80 166 
80 167 
80 168 
80 173 
80 175 
81 82 
81 83 
81 89 
81 90 
81 100 
81 110 
81 113 
81 118 
81 130 
81 134 
81 135 
81 140 
81 142 
81 148 
81 149 
81 157 
81 161 
81 164 
81 165 
81 168 
81 169 
81 171 
81 176 
82 83 
82 84 
82 88 
82 98 
82 108 
82 111 
82 115 
82 122 
82 123 
82 128 
82 132 
82 144 
82 146 
82 147 
82 151 
82 154 
82 157 
82 160 
82 169 
82 171 
82 175 
82 176 
83 89 
83 91 
83 97 
83 103 
83 105 
83 112 
83 120 
83 122 
83 129 
83 130 
83 138 
83 139 
83 153 
83 158 
83 164 
83 167 
83 169 
83 172 
83 174 
83 175 
84 85 
84 86 
84 87 
84 88 
84 89 
84 90 
84 91 
84 92 
84 93 
84 94 
84 95 
84 96 
84 97 
84 98 
84 99 
84 100 
84 101 
84 102 
84 103 
84 108 
84 115 
84 123 
84 147 
84 151 
84 154 
84 160 
84 169 
84 171 
85 86 
85 87 
85 88 
85 89 
85 90 
85 91 
85 92 
85 93 
85 98 
85 104 
85 107 
85 114 
85 115 
85 116 
85 117 
85 118 
85 119 
85 120 
85 121 
85 122 
85 126 
85 133 
85 140 
85 149 
85 153 
85 154 
85 155 
85 156 
86 87 
86 88 
86 89 
86 90 
86 91 
86 92 
86 93 
86 94 
86 101 
86 115 
86 116 
86 136 
86 138 
86 139 
86 140 
86 141 
86 142 
86 143 
86 144 
86 155 
86 160 
86 163 
86 166 
86 168 
86 176 
87 88 
87 89 
87 90 
87 91 
87 92 
87 93 
87 95 
87 99 
87 108 
87 118 
87 119 
87 127 
87 131 
87 133 
87 141 
87 153 
87 157 
87 158 
87 159 
87 160 
87 161 
87 162 
87 163 
87 164 
88 89 
88 90 
88 91 
88 92 
88 93 
88 98 
88 109 
88 111 
88 119 
88 122 
88 125 
88 128 
88 132 
88 134 
88 141 
88 144 
88 145 
88 146 
88 157 
88 165 
88 166 
88 167 
88 175 
88 176 
89 90 
89 91 
89 92 
89 93 
89 97 
89 100 
89 110 
89 112 
89 122 
89 129 
89 135 
89 138 
89 142 
89 149 
89 157 
89 158 
89 161 
89 164 
89 165 
89 167 
89 168 
89 169 
89 174 
90 91 
90 92 
90 93 
90 101 
90 113 
90 118 
90 121 
90 129 
90 130 
90 134 
90 140 
90 143 
90 146 
90 148 
90 151 
90 159 
90 161 
90 164 
90 170 
90 171 
90 172 
90 176 
91 92 
91 93 
91 100 
91 103 
91 105 
91 111 
91 120 
91 126 
91 130 
91 137 
91 139 
91 145 
91 150 
91 153 
91 159 
91 163 
91 169 
91 172 
91 173 
91 174 
91 175 
92 93 
92 99 
92 102 
92 110 
92 112 
92 114 
92 121 
92 124 
92 137 
92 143 
92 144 
92 147 
92 152 
92 154 
92 156 
92 166 
92 168 
92 173 
92 175 
93 102 
93 103 
93 109 
93 113 
93 117 
93 127 
93 135 
93 142 
93 148 
93 152 
93 155 
93 156 
93 162 
93 167 
93 170 
93 172 
93 173 
93 174 
94 95 
94 96 
94 97 
94 98 
94 99 
94 100 
94 101 
94 102 
94 103 
94 104 
94 105 
94 106 
94 107 
94 108 
94 109 
94 110 
94 111 
94 112 
94 113 
94 115 
94 138 
94 139 
94 140 
94 141 
94 142 
94 143 
94 144 
95 96 
95 97 
95 98 
95 99 
95 100 
95 101 
95 102 
95 103 
95 104 
95 118 
95 123 
95 124 
95 125 
95 126 
95 127 
95 128 
95 129 
95 130 
95 131 
95 141 
95 153 
95 157 
95 158 
95 159 
95 160 
96 97 
96 98 
96 99 
96 100 
96 101 
96 102 
96 103 
96 106 
96 107 
96 116 
96 120 
96 124 
96 128 
96 131 
96 136 
96 138 
96 145 
96 146 
96 147 
96 148 
96 150 
96 158 
96 162 
96 165 
96 170 
96 171 
97 98 
97 99 
97 100 
97 101 
97 102 
97 103 
97 106 
97 112 
97 117 
97 122 
97 125 
97 129 
97 132 
97 138 
97 139 
97 149 
97 150 
97 151 
97 152 
97 158 
97 164 
97 167 
97 174 
98 99 
98 100 
98 101 
98 102 
98 103 
98 107 
98 111 
98 122 
98 126 
98 128 
98 132 
98 133 
98 140 
98 144 
98 146 
98 149 
98 153 
98 154 
98 155 
98 156 
98 157 
98 175 
98 176 
99 100 
99 101 
99 102 
99 103 
99 108 
99 110 
99 119 
99 121 
99 127 
99 133 
99 137 
99 144 
99 147 
99 152 
99 156 
99 161 
99 162 
99 163 
99 164 
99 166 
100 101 
100 102 
100 103 
100 110 
100 111 
100 126 
100 135 
100 137 
100 142 
100 145 
100 149 
100 150 
100 157 
100 159 
100 161 
100 163 
100 165 
100 168 
100 169 
100 173 
100 174 
101 102 
101 103 
101 116 
101 121 
101 129 
101 136 
101 143 
101 146 
101 151 
101 155 
101 159 
101 160 
101 161 
101 163 
101 166 
101 168 
101 170 
101 172 
101 176 
102 103 
102 109 
102 112 
102 114 
102 124 
102 142 
102 143 
102 148 
102 152 
102 154 
102 155 
102 162 
102 168 
102 172 
102 173 
102 174 
102 175 
103 105 
103 113 
103 117 
103 120 
103 127 
103 130 
103 135 
103 139 
103 153 
103 156 
103 167 
103 169 
103 170 
103 172 
103 173 
103 175 
104 105 
104 106 
104 107 
104 108 
104 109 
104 110 
104 111 
104 112 
104 113 
104 114 
104 115 
104 116 
104 117 
104 118 
104 119 
104 120 
104 121 
104 122 
104 123 
104 124 
104 125 
104 126 
104 127 
104 128 
104 129 
104 130 
105 106 
105 107 
105 108 
105 109 
105 110 
105 111 
105 112 
105 113 
105 114 
105 120 
105 123 
105 130 
105 131 
105 132 
105 133 
105 134 
105 135 
105 136 
105 137 
105 139 
105 153 
105 169 
105 172 
105 175 
106 107 
106 108 
106 109 
106 110 
106 111 
106 112 
106 113 
106 116 
106 117 
106 124 
106 125 
106 131 
106 132 
106 138 
106 139 
106 145 
106 146 
106 147 
106 148 
106 149 
106 150 
106 151 
106 152 
107 108 
107 109 
107 110 
107 111 
107 112 
107 113 
107 120 
107 126 
107 128 
107 133 
107 136 
107 140 
107 149 
107 150 
107 153 
107 154 
107 155 
107 156 
107 158 
107 162 
107 165 
107 170 
107 171 
108 109 
108 110 
108 111 
108 112 
108 113 
108 115 
108 119 
108 123 
108 127 
108 133 
108 147 
108 151 
108 154 
108 160 
108 161 
108 162 
108 163 
108 164 
108 169 
108 171 
109 110 
109 111 
109 112 
109 113 
109 119 
109 125 
109 134 
109 141 
109 142 
109 145 
109 148 
109 152 
109 155 
109 162 
109 165 
109 166 
109 167 
109 172 
109 174 
110 111 
110 112 
110 113 
110 121 
110 135 
110 137 
110 142 
110 144 
110 147 
110 149 
110 152 
110 156 
110 157 
110 161 
110 165 
110 166 
110 168 
110 169 
111 112 
111 113 
111 122 
111 126 
111 128 
111 132 
111 137 
111 144 
111 145 
111 146 
111 150 
111 157 
111 159 
111 163 
111 173 
111 174 
111 175 
111 176 
112 113 
112 114 
112 122 
112 124 
112 129 
112 138 
112 143 
112 154 
112 158 
112 164 
112 167 
112 168 
112 173 
112 174 
112 175 
113 117 
113 118 
113 127 
113 130 
113 134 
113 135 
113 140 
113 148 
113 156 
113 164 
113 167 
113 170 
113 171 
113 173 
113 176 
114 115 
114 116 
114 117 
114 118 
114 119 
114 120 
114 121 
114 122 
114 123 
114 124 
114 131 
114 132 
114 133 
114 134 
114 135 
114 136 
114 137 
114 143 
114 154 
114 168 
114 173 
114 175 
115 116 
115 117 
115 118 
115 119 
115 120 
115 121 
115 122 
115 123 
115 138 
115 139 
115 140 
115 141 
115 142 
115 143 
115 144 
115 147 
115 151 
115 154 
115 160 
115 169 
115 171 
116 117 
116 118 
116 119 
116 120 
116 121 
116 122 
116 124 
116 131 
116 136 
116 138 
116 145 
116 146 
116 147 
116 148 
116 155 
116 160 
116 163 
116 166 
116 168 
116 176 
117 118 
117 119 
117 120 
117 121 
117 122 
117 125 
117 127 
117 132 
117 135 
117 139 
117 149 
117 150 
117 151 
117 152 
117 156 
117 167 
117 170 
117 173 
118 119 
118 120 
118 121 
118 122 
118 130 
118 131 
118 134 
118 140 
118 141 
118 148 
118 153 
118 157 
118 158 
118 159 
118 160 
118 164 
118 171 
118 176 
119 120 
119 121 
119 122 
119 125 
119 127 
119 133 
119 134 
119 141 
119 145 
119 161 
119 162 
119 163 
119 164 
119 165 
119 166 
119 167 
120 121 
120 122 
120 128 
120 130 
120 136 
120 139 
120 150 
120 153 
120 158 
120 162 
120 165 
120 169 
120 170 
120 171 
120 172 
120 175 
121 122 
121 129 
121 137 
121 143 
121 144 
121 146 
121 147 
121 151 
121 152 
121 156 
121 159 
121 161 
121 166 
121 170 
121 172 
122 128 
122 129 
122 132 
122 138 
122 144 
122 146 
122 157 
122 158 
122 164 
122 167 
122 174 
122 175 
122 176 
123 124 
123 125 
123 126 
123 127 
123 128 
123 129 
123 130 
123 131 
123 132 
123 133 
123 134 
123 135 
123 136 
123 137 
123 147 
123 151 
123 154 
123 160 
123 169 
123 171 
124 125 
124 126 
124 127 
124 128 
124 129 
124 130 
124 131 
124 138 
124 143 
124 145 
124 146 
124 147 
124 148 
124 154 
124 168 
124 173 
124 175 
125 126 
125 127 
125 128 
125 129 
125 130 
125 132 
125 134 
125 139 
125 141 
125 145 
125 149 
125 150 
125 151 
125 152 
125 165 
125 166 
125 167 
126 127 
126 128 
126 129 
126 130 
126 133 
126 137 
126 140 
126 145 
126 149 
126 150 
126 153 
126 154 
126 155 
126 156 
126 159 
126 163 
126 173 
126 174 
127 128 
127 129 
127 130 
127 133 
127 135 
127 156 
127 161 
127 162 
127 163 
127 164 
127 167 
127 170 
127 173 
128 129 
128 130 
128 132 
128 136 
128 144 
128 146 
128 150 
128 157 
128 158 
128 162 
128 165 
128 170 
128 171 
128 175 
128 176 
129 130 
129 138 
129 143 
129 146 
129 151 
129 158 
129 159 
129 161 
129 164 
129 167 
129 170 
129 172 
129 174 
130 134 
130 139 
130 140 
130 148 
130 153 
130 164 
130 169 
130 171 
130 172 
130 175 
130 176 
131 132 
131 133 
131 134 
131 135 
131 136 
131 137 
131 138 
131 141 
131 145 
131 146 
131 147 
131 148 
131 153 
131 157 
131 158 
131 159 
131 160 
132 133 
132 134 
132 135 
132 136 
132 137 
132 139 
132 144 
132 146 
132 149 
132 150 
132 151 
132 152 
132 157 
132 175 
132 176 
133 134 
133 135 
133 136 
133 137 
133 140 
133 149 
133 153 
133 154 
133 155 
133 156 
133 161 
133 162 
133 163 
133 164 
134 135 
134 136 
134 137 
134 140 
134 141 
134 145 
134 148 
134 164 
134 165 
134 166 
134 167 
134 171 
134 176 
135 136 
135 137 
135 142 
135 149 
135 156 
135 157 
135 161 
135 165 
135 167 
135 168 
135 169 
135 170 
135 173 
136 137 
136 150 
136 155 
136 158 
136 160 
136 162 
136 163 
136 165 
136 166 
136 168 
136 170 
136 171 
136 176 
137 144 
137 145 
137 147 
137 150 
137 152 
137 156 
137 159 
137 163 
137 166 
137 173 
137 174 
138 139 
138 140 
138 141 
138 142 
138 143 
138 144 
138 145 
138 146 
138 147 
138 148 
138 158 
138 164 
138 167 
138 174 
139 140 
139 141 
139 142 
139 143 
139 144 
139 149 
139 150 
139 151 
139 152 
139 153 
139 169 
139 172 
139 175 
140 141 
140 142 
140 143 
140 144 
140 148 
140 149 
140 153 
140 154 
140 155 
140 156 
140 164 
140 171 
140 176 
141 142 
141 143 
141 144 
141 145 
141 153 
141 157 
141 158 
141 159 
141 160 
141 165 
141 166 
141 167 
142 143 
142 144 
142 148 
142 149 
142 152 
142 155 
142 157 
142 161 
142 162 
142 165 
142 168 
142 169 
142 172 
142 174 
143 144 
143 146 
143 151 
143 154 
143 159 
143 161 
143 168 
143 170 
143 172 
143 173 
143 175 
144 146 
144 147 
144 152 
144 156 
144 157 
144 166 
144 175 
144 176 
145 146 
145 147 
145 148 
145 150 
145 159 
145 163 
145 165 
145 166 
145 167 
145 173 
145 174 
146 147 
146 148 
146 151 
146 157 
146 159 
146 161 
146 170 
146 172 
146 175 
146 176 
147 148 
147 151 
147 152 
147 154 
147 156 
147 160 
147 166 
147 169 
147 171 
148 152 
148 155 
148 162 
148 164 
148 171 
148 172 
148 174 
148 176 
149 150 
149 151 
149 152 
149 153 
149 154 
149 155 
149 156 
149 157 
149 161 
149 165 
149 168 
149 169 
150 151 
150 152 
150 158 
150 159 
150 162 
150 163 
150 165 
150 170 
150 171 
150 173 
150 174 
151 152 
151 154 
151 159 
151 160 
151 161 
151 169 
151 170 
151 171 
151 172 
152 155 
152 156 
152 162 
152 166 
152 172 
152 174 
153 154 
153 155 
153 156 
153 157 
153 158 
153 159 
153 160 
153 169 
153 172 
153 175 
154 155 
154 156 
154 160 
154 168 
154 169 
154 171 
154 173 
154 175 
155 156 
155 160 
155 162 
155 163 
155 166 
155 168 
155 172 
155 174 
155 176 
156 166 
156 167 
156 170 
156 173 
157 158 
157 159 
157 160 
157 161 
157 165 
157 168 
157 169 
157 175 
157 176 
158 159 
158 160 
158 162 
158 164 
158 165 
158 167 
158 170 
158 171 
158 174 
159 160 
159 161 
159 163 
159 170 
159 172 
159 173 
159 174 
160 163 
160 166 
160 168 
160 169 
160 171 
160 176 
161 162 
161 163 
161 164 
161 165 
161 168 
161 169 
161 170 
161 172 
162 163 
162 164 
162 165 
162 170 
162 171 
162 172 
162 174 
163 164 
163 166 
163 168 
163 173 
163 174 
163 176 
164 167 
164 171 
164 174 
164 176 
165 166 
165 167 
165 168 
165 169 
165 170 
165 171 
166 167 
166 168 
166 176 
167 170 
167 173 
167 174 
168 169 
168 173 
168 175 
168 176 
169 171 
169 172 
169 175 
170 171 
170 172 
170 173 
171 176 
172 174 
172 175 
173 174 
173 175 
175 176 
